benchmarks_vrp/CMT5/tsp_classic/CMT5_0.vrp
NAME: CMT5_0
TYPE: CVRP
COMMENT: 1291.29 - Cluster Nr.0
DIMENSION: 13
CAPACITY: 200
EDGE_WEIGHT_TYPE: EUC_2D
NODE_COORD_TYPE: TWOD_COORDS
NODE_COORD_SECTION: 
12 5 6
10 13 13
8 10 20
3 15 14
7 11 14
2 15 10
13 12 17
1 18 18
9 35 35
5 15 19
4 10 17
11 16 19
6 5 5
DEPOT_SECTION: 
9
-1
DEMAND_SECTION: 
6 16
8 19
2 20
1 17
12 7
10 9
5 1
13 15
3 11
4 27
7 18
9 0
11 18
EOF
