benchmarks_vrp/CMT5/tsp_classic/CMT5_0.tour
NAME: CMT5_0 solution
TYPE: TOUR
TOUR_SECTION:
9 1 3 10 2 6 12 7 13 4 8 5 11 -1
-1
EOF